7 73 71 22 14 70 10 38 25 39 43 55 19 4 46 44 54 76 9 69 58 59 62 67 1 8 48 49 34 16 72 12 21 63 18 3 17 52 47 31 66 35 53 13 0 51 6 64 40 56 60 33 11 24 61 23 45 20 2 15 30 32 57 41 68 27 74 75 37 50 5 65 42 36 26 28 29 